
Gurobi 9.1.1 (linux64, C++) logging started Sun Feb 14 12:54:44 2021

Academic license - for non-commercial use only - expires 2021-04-13
Gurobi Optimizer version 9.1.1 build v9.1.1rc0 (linux64)
Thread count: 2 physical cores, 2 logical processors, using up to 2 threads
Optimize a model with 36 rows, 36 columns and 90 nonzeros
Model fingerprint: 0xf929570b
Variable types: 0 continuous, 36 integer (36 binary)
Coefficient statistics:
  Matrix range     [1e+00, 1e+00]
  Objective range  [1e+00, 1e+01]
  Bounds range     [1e+00, 1e+00]
  RHS range        [1e+00, 1e+00]
Found heuristic solution: objective 49.0000000
Presolve removed 0 rows and 1 columns
Presolve time: 0.00s
Presolved: 36 rows, 35 columns, 90 nonzeros
Variable types: 0 continuous, 35 integer (35 binary)

Root relaxation: objective 9.000000e+00, 12 iterations, 0.00 seconds

    Nodes    |    Current Node    |     Objective Bounds      |     Work
 Expl Unexpl |  Obj  Depth IntInf | Incumbent    BestBd   Gap | It/Node Time

*    0     0               0       9.0000000    9.00000  0.00%     -    0s

Explored 0 nodes (12 simplex iterations) in 0.01 seconds
Thread count was 2 (of 2 available processors)

Solution count 2: 9 49 

Optimal solution found (tolerance 1.00e-04)
Best objective 9.000000000000e+00, best bound 9.000000000000e+00, gap 0.0000%
